InboundTrucks  = 40;
OutboundTrucks = 20;
ReleaseTime    = [8,91,41,53,0,99,36,41,96,89,88,87,60,79,96,34,57,61,110,71,78,60,17,118,72,61,7,68,29,27,115,88,118,24,1,38,13,30,71,34];
UnloadTime     = [4,10,12,23,19,5,19,21,22,1,11,11,8,2,6,17,10,9,3,7,4,4,8,10,3,15,2,5,21,11,1,4,12,9,6,2,4,2,4,10];
LoadTime       = [10,3,3,20,4,12,4,7,6,19,13,2,10,18,5,5,16,3,12,6];
TransferTime   = [| 0,0,0,0,0,0,1,0,7,0,0,0,0,0,0,8,0,15,0,2 | 0,0,0,0,0,0,0,0,0,0,1,0,0,0,0,0,0,0,0,0 | 6,2,0,0,0,0,0,0,0,0,0,0,2,1,0,0,4,4,0,0 | 0,0,0,0,0,0,0,2,3,15,5,0,0,0,0,0,1,0,0,0 | 8,0,0,2,0,4,0,5,0,0,0,0,0,0,0,6,0,0,2,0 | 0,0,0,0,2,0,0,0,5,2,0,0,0,0,0,0,0,0,0,0 | 0,0,0,0,0,0,0,0,0,0,0,0,1,0,0,0,0,0,0,6 | 0,1,0,8,8,0,0,0,0,0,0,0,0,4,4,0,3,2,0,0 | 0,0,2,0,0,3,0,0,0,0,0,0,4,0,0,0,0,2,5,0 | 1,6,0,1,0,4,0,0,0,5,0,8,0,0,0,2,0,0,0,0 | 0,11,0,3,0,0,8,0,5,5,0,0,0,0,6,3,0,0,0,6 | 0,0,1,5,0,0,4,0,0,0,0,0,0,0,8,0,0,0,0,3 | 0,0,1,0,0,0,5,6,0,0,0,0,2,0,0,0,0,3,0,2 | 0,0,3,0,0,2,3,0,0,0,0,0,0,0,0,0,0,4,3,0 | 1,0,0,0,0,1,0,7,0,2,0,0,8,0,0,4,0,0,0,0 | 3,0,7,2,0,0,0,0,0,0,0,0,0,0,4,4,0,0,0,2 | 0,0,0,0,8,0,8,0,1,0,0,4,0,0,0,0,0,0,4,0 | 3,0,0,5,0,0,0,0,0,5,0,2,0,0,0,4,0,2,0,0 | 0,0,0,0,3,0,0,0,0,0,0,0,0,2,0,0,4,0,0,0 | 0,0,0,0,0,0,0,0,0,0,0,7,0,0,0,4,0,5,8,0 | 2,0,0,0,5,2,0,0,0,2,0,0,7,0,0,2,0,0,0,0 | 0,0,0,0,0,0,0,0,5,0,0,5,0,0,0,0,0,0,5,0 | 0,0,3,0,0,2,0,0,0,0,0,0,0,0,0,0,0,3,0,2 | 5,0,0,0,0,0,0,14,0,0,0,0,8,0,0,3,0,0,0,0 | 5,0,0,5,1,0,0,0,0,4,0,0,0,0,0,4,0,0,0,8 | 4,1,0,5,0,0,0,4,0,1,0,0,0,0,0,0,0,0,0,0 | 4,9,0,0,0,0,0,0,0,0,0,0,0,0,2,0,5,0,0,0 | 2,2,0,0,0,0,0,0,0,0,0,0,0,2,2,0,0,0,6,0 | 0,1,0,0,0,0,0,0,0,0,0,0,4,1,4,0,0,0,0,2 | 0,0,0,0,0,0,0,1,2,0,0,3,0,0,0,0,0,0,0,2 | 0,0,4,0,0,1,0,4,0,0,0,0,0,0,0,0,0,0,0,1 | 0,0,0,2,0,0,0,0,2,0,4,4,0,0,4,0,0,0,0,0 | 1,0,1,0,0,0,0,0,0,0,0,0,7,0,0,1,1,0,0,3 | 2,0,0,0,0,0,0,0,0,6,0,0,0,2,1,0,0,0,0,0 | 0,0,0,0,0,0,0,0,4,0,0,3,0,0,0,0,0,0,0,0 | 0,0,3,0,0,1,5,0,0,0,0,0,0,0,0,0,0,0,0,15 | 0,0,0,4,0,0,0,0,3,0,2,0,0,0,5,0,0,0,9,0 | 2,0,0,8,0,0,2,0,0,0,0,0,0,0,0,5,0,1,0,0 | 0,0,0,6,7,0,1,0,4,0,0,1,0,0,0,0,8,0,4,0 | 0,4,0,0,0,0,3,0,0,0,0,0,1,0,2,0,0,0,0,0 |];
